decision_x1=[0,7];
decision_x2=[0,7];
decision_x3=[0,7];
decision_x4=[0,7];
decision_x5=[0,7];
decision_x6=[0,7];
decision_x7=[0,7];
decision_x8=[0,7];
decision_x9=[0,7];
decision_x10=[0,7];
decision_x11=[0,7];
decision_x12=[0,7];
decision_x13=[0,7];
decision_x14=[0,7];
random_y1=[0,7];
random_y2=[0,7];
random_y3=[0,7];
random_y4=[0,7];
random_y5=[0,7];
random_y6=[0,7];
constraint_x2_x1=[
0,0,7.7|
0,1,2.1|
0,2,3.6|
0,3,7|
0,4,8.7|
0,5,1|
0,6,0.3|
0,7,6.6|
1,0,0.81|
1,1,9.4|
1,2,1.2|
1,3,0.73|
1,4,5.9|
1,5,5.7|
1,6,6.9|
1,7,4.5|
2,0,1.3|
2,1,3|
2,2,1.5|
2,3,8.7|
2,4,4.3|
2,5,5.3|
2,6,1.2|
2,7,9.9|
3,0,2.7|
3,1,2.5|
3,2,7.4|
3,3,8.7|
3,4,1.5|
3,5,5.9|
3,6,9.3|
3,7,4.8|
4,0,2.2|
4,1,1.4|
4,2,8.8|
4,3,0.37|
4,4,1.4|
4,5,7|
4,6,6.6|
4,7,8.8|
5,0,5.1|
5,1,1.3|
5,2,5.5|
5,3,5.4|
5,4,6.5|
5,5,8.3|
5,6,6.2|
5,7,4.5|
6,0,2.4|
6,1,7.2|
6,2,5.2|
6,3,8.9|
6,4,1.6|
6,5,8.7|
6,6,7.9|
6,7,9|
7,0,0.77|
7,1,0.3|
7,2,5.9|
7,3,5.3|
7,4,5.5|
7,5,9.7|
7,6,6.9|
7,7,4|
];
constraint_x3_x2=[
0,0,3.4|
0,1,4.5|
0,2,5.4|
0,3,2.6|
0,4,8.1|
0,5,6.1|
0,6,0.81|
0,7,1.9|
1,0,8|
1,1,5.9|
1,2,0.57|
1,3,3.6|
1,4,0.77|
1,5,0.53|
1,6,0.71|
1,7,6.2|
2,0,0.83|
2,1,4.1|
2,2,6|
2,3,4.9|
2,4,9.5|
2,5,9.1|
2,6,1.6|
2,7,8.7|
3,0,0.52|
3,1,6.6|
3,2,4.8|
3,3,8.4|
3,4,8.4|
3,5,4.1|
3,6,8.7|
3,7,9|
4,0,8.6|
4,1,3.7|
4,2,0.77|
4,3,8|
4,4,3.9|
4,5,2.1|
4,6,5.6|
4,7,8.5|
5,0,4.7|
5,1,4.2|
5,2,6.2|
5,3,3.6|
5,4,4.7|
5,5,7.6|
5,6,5.8|
5,7,1.2|
6,0,0.33|
6,1,8.8|
6,2,5.9|
6,3,7.4|
6,4,2.1|
6,5,7.1|
6,6,3.2|
6,7,7.1|
7,0,1.6|
7,1,4.1|
7,2,9.3|
7,3,8.3|
7,4,5.4|
7,5,3|
7,6,1.4|
7,7,3.6|
];
constraint_x4_x3=[
0,0,0.31|
0,1,5|
0,2,9.3|
0,3,5.4|
0,4,5.9|
0,5,5.4|
0,6,2.8|
0,7,3.2|
1,0,3.9|
1,1,3.7|
1,2,4.1|
1,3,2.9|
1,4,3.6|
1,5,6.6|
1,6,1.7|
1,7,5.3|
2,0,9.1|
2,1,6.5|
2,2,2.2|
2,3,8.8|
2,4,6.5|
2,5,1.9|
2,6,4.6|
2,7,3.5|
3,0,0.0053|
3,1,0.43|
3,2,3.3|
3,3,3.3|
3,4,7.3|
3,5,5.4|
3,6,9.2|
3,7,6|
4,0,8.9|
4,1,0.53|
4,2,8.3|
4,3,4.8|
4,4,8.9|
4,5,1.6|
4,6,2.2|
4,7,2|
5,0,10|
5,1,8.8|
5,2,2.1|
5,3,3.9|
5,4,3|
5,5,8.8|
5,6,3|
5,7,3.7|
6,0,9.1|
6,1,1.1|
6,2,8.9|
6,3,7.8|
6,4,7.4|
6,5,4|
6,6,0.18|
6,7,4.8|
7,0,1.5|
7,1,9.9|
7,2,5.3|
7,3,3.1|
7,4,0.04|
7,5,7|
7,6,7.9|
7,7,9.1|
];
constraint_x5_x1=[
0,0,8.7|
0,1,8.8|
0,2,3.7|
0,3,1.9|
0,4,3.9|
0,5,1.7|
0,6,6.6|
0,7,2|
1,0,7.6|
1,1,6.9|
1,2,0.087|
1,3,3.8|
1,4,2.4|
1,5,0.27|
1,6,1|
1,7,7|
2,0,4.7|
2,1,2.6|
2,2,8.5|
2,3,5.4|
2,4,3.2|
2,5,4.7|
2,6,9.5|
2,7,9.9|
3,0,2.5|
3,1,0.22|
3,2,2.8|
3,3,9.7|
3,4,8.5|
3,5,7.5|
3,6,5.6|
3,7,7.5|
4,0,5.9|
4,1,8.2|
4,2,6.1|
4,3,9.2|
4,4,6.7|
4,5,6.1|
4,6,4.3|
4,7,0.002|
5,0,3.7|
5,1,6.3|
5,2,7.4|
5,3,7.5|
5,4,3.8|
5,5,3.2|
5,6,7.3|
5,7,0.97|
6,0,10|
6,1,4.1|
6,2,7.7|
6,3,9.2|
6,4,4.5|
6,5,3.7|
6,6,5.9|
6,7,1.6|
7,0,6.7|
7,1,5.6|
7,2,2.2|
7,3,0.47|
7,4,7.3|
7,5,4.1|
7,6,1.8|
7,7,7|
];
constraint_x6_x2=[
0,0,6.3|
0,1,6.9|
0,2,8.4|
0,3,1.7|
0,4,8.2|
0,5,3.9|
0,6,6.8|
0,7,0.1|
1,0,0.54|
1,1,9|
1,2,0.57|
1,3,4.8|
1,4,1.6|
1,5,8.3|
1,6,6.9|
1,7,6|
2,0,9|
2,1,9.8|
2,2,2.8|
2,3,1|
2,4,7.1|
2,5,2.6|
2,6,6.6|
2,7,8.5|
3,0,0.66|
3,1,3.8|
3,2,5|
3,3,10|
3,4,5.9|
3,5,2.9|
3,6,3|
3,7,8|
4,0,0.82|
4,1,4.3|
4,2,0.3|
4,3,1.1|
4,4,5.7|
4,5,5.5|
4,6,5.7|
4,7,0.8|
5,0,5.8|
5,1,8.7|
5,2,3.3|
5,3,5|
5,4,8.7|
5,5,2.4|
5,6,3|
5,7,2.2|
6,0,1.4|
6,1,7.7|
6,2,5.5|
6,3,2.8|
6,4,3.1|
6,5,2.5|
6,6,5|
6,7,6.3|
7,0,3.4|
7,1,7.7|
7,2,0.73|
7,3,7.3|
7,4,2.2|
7,5,1.4|
7,6,2.4|
7,7,6|
];
constraint_x7_x3=[
0,0,3.8|
0,1,1.8|
0,2,6.2|
0,3,0.26|
0,4,3.2|
0,5,8.3|
0,6,6.6|
0,7,1.5|
1,0,9.5|
1,1,7.2|
1,2,5.5|
1,3,5.1|
1,4,4|
1,5,1.6|
1,6,4.3|
1,7,4.8|
2,0,8.9|
2,1,9.5|
2,2,1.5|
2,3,8.5|
2,4,2.7|
2,5,6.6|
2,6,8.2|
2,7,6.6|
3,0,4.5|
3,1,6.2|
3,2,2.1|
3,3,5.3|
3,4,10|
3,5,6|
3,6,8.7|
3,7,8.2|
4,0,2.8|
4,1,1.5|
4,2,7.7|
4,3,4.5|
4,4,4.6|
4,5,2.9|
4,6,9.4|
4,7,7.8|
5,0,9.8|
5,1,1.9|
5,2,4.9|
5,3,0.2|
5,4,3|
5,5,9.6|
5,6,1.8|
5,7,9|
6,0,3.8|
6,1,3.2|
6,2,1.8|
6,3,2.6|
6,4,7.5|
6,5,2|
6,6,4.8|
6,7,6.9|
7,0,5.9|
7,1,3|
7,2,3.1|
7,3,3.8|
7,4,4.6|
7,5,4|
7,6,5.8|
7,7,4.9|
];
constraint_x8_x4=[
0,0,3.2|
0,1,1.9|
0,2,6.6|
0,3,9|
0,4,9.7|
0,5,7|
0,6,9.6|
0,7,9.8|
1,0,8.2|
1,1,0.72|
1,2,0.87|
1,3,2.9|
1,4,4.5|
1,5,4.5|
1,6,7.6|
1,7,2.2|
2,0,7|
2,1,1.1|
2,2,7.3|
2,3,0.37|
2,4,1.1|
2,5,3.2|
2,6,7.8|
2,7,7.5|
3,0,9.5|
3,1,8.9|
3,2,7.5|
3,3,1.4|
3,4,6.8|
3,5,0.056|
3,6,2.9|
3,7,5.6|
4,0,9.2|
4,1,5.9|
4,2,1.4|
4,3,0.66|
4,4,9.9|
4,5,2.8|
4,6,10|
4,7,1.2|
5,0,2.6|
5,1,9.5|
5,2,6.2|
5,3,2.9|
5,4,6.5|
5,5,5.6|
5,6,3.8|
5,7,7.9|
6,0,7.9|
6,1,3.9|
6,2,0.65|
6,3,4.6|
6,4,9.5|
6,5,1.6|
6,6,8.7|
6,7,6.1|
7,0,5.3|
7,1,7.1|
7,2,4.6|
7,3,8.3|
7,4,1.8|
7,5,9.9|
7,6,2.8|
7,7,1.4|
];
constraint_x9_x5=[
0,0,0.58|
0,1,6.6|
0,2,1.6|
0,3,8.8|
0,4,9.8|
0,5,0.16|
0,6,5.4|
0,7,9.3|
1,0,1.2|
1,1,3.1|
1,2,8.1|
1,3,1.7|
1,4,2.6|
1,5,4.5|
1,6,7.4|
1,7,1.1|
2,0,6.8|
2,1,4.5|
2,2,9.9|
2,3,4.1|
2,4,3.8|
2,5,1.5|
2,6,8.1|
2,7,6|
3,0,1.7|
3,1,2.3|
3,2,1|
3,3,8|
3,4,5.7|
3,5,5.3|
3,6,8.9|
3,7,2.9|
4,0,5.5|
4,1,7.6|
4,2,3.9|
4,3,7.9|
4,4,9.6|
4,5,4|
4,6,2.4|
4,7,5.2|
5,0,4.7|
5,1,7.3|
5,2,7.5|
5,3,1.9|
5,4,5.8|
5,5,4|
5,6,8|
5,7,9.4|
6,0,9.4|
6,1,3.6|
6,2,1.2|
6,3,9.5|
6,4,5.1|
6,5,9.5|
6,6,9.8|
6,7,5.8|
7,0,4|
7,1,8.2|
7,2,4.4|
7,3,1.9|
7,4,3|
7,5,5.7|
7,6,5.7|
7,7,5.5|
];
constraint_x10_x6=[
0,0,7.2|
0,1,6.6|
0,2,2.1|
0,3,4.1|
0,4,8.6|
0,5,3.1|
0,6,1.4|
0,7,0.27|
1,0,9.4|
1,1,3.6|
1,2,6|
1,3,1.1|
1,4,3.8|
1,5,1.3|
1,6,1.7|
1,7,7.2|
2,0,4.8|
2,1,4|
2,2,2.7|
2,3,5.7|
2,4,0.57|
2,5,4.6|
2,6,1.2|
2,7,0.18|
3,0,1.2|
3,1,9.1|
3,2,0.77|
3,3,5.3|
3,4,6.7|
3,5,1.1|
3,6,2.8|
3,7,1.9|
4,0,5.6|
4,1,10|
4,2,0.51|
4,3,4.2|
4,4,4.3|
4,5,9.4|
4,6,3.2|
4,7,3|
5,0,3.8|
5,1,2.8|
5,2,7|
5,3,7.2|
5,4,3.6|
5,5,2.6|
5,6,2|
5,7,4.2|
6,0,8.5|
6,1,5|
6,2,0.94|
6,3,1.5|
6,4,6.4|
6,5,0.48|
6,6,0.34|
6,7,6.9|
7,0,6.9|
7,1,8|
7,2,2|
7,3,2.6|
7,4,1.6|
7,5,7.7|
7,6,6.8|
7,7,3.2|
];
constraint_x11_x7=[
0,0,9.5|
0,1,7.1|
0,2,6.7|
0,3,6.1|
0,4,6.4|
0,5,9.1|
0,6,5.2|
0,7,5.7|
1,0,2|
1,1,2.2|
1,2,7.9|
1,3,9|
1,4,7.7|
1,5,3.8|
1,6,1.7|
1,7,7.3|
2,0,4.4|
2,1,3.9|
2,2,7.4|
2,3,9.7|
2,4,8.1|
2,5,2.7|
2,6,1.4|
2,7,8.7|
3,0,7.7|
3,1,3.7|
3,2,1.8|
3,3,9.8|
3,4,6.4|
3,5,1.5|
3,6,3.1|
3,7,7.5|
4,0,2.9|
4,1,7|
4,2,7.2|
4,3,4.1|
4,4,3.2|
4,5,4.7|
4,6,1.5|
4,7,2.1|
5,0,2.5|
5,1,6.7|
5,2,4|
5,3,2.2|
5,4,3.8|
5,5,2|
5,6,9.7|
5,7,8.2|
6,0,0.19|
6,1,2.7|
6,2,1|
6,3,3.4|
6,4,6.7|
6,5,5.6|
6,6,6|
6,7,4.8|
7,0,1.8|
7,1,1.5|
7,2,4.5|
7,3,3.2|
7,4,1.7|
7,5,9.5|
7,6,0.29|
7,7,9.2|
];
constraint_x12_x8=[
0,0,1.3|
0,1,0.94|
0,2,3.3|
0,3,9|
0,4,0.29|
0,5,3.8|
0,6,8.8|
0,7,2.3|
1,0,7.9|
1,1,9.2|
1,2,8|
1,3,9.1|
1,4,9.9|
1,5,9.3|
1,6,9.6|
1,7,1|
2,0,6.5|
2,1,5.6|
2,2,1.8|
2,3,1.6|
2,4,1.6|
2,5,9.5|
2,6,0.14|
2,7,9.5|
3,0,4.7|
3,1,4.8|
3,2,1.5|
3,3,5.8|
3,4,4.3|
3,5,4.6|
3,6,2.6|
3,7,9.9|
4,0,1.8|
4,1,8.5|
4,2,5.8|
4,3,1|
4,4,5|
4,5,1.7|
4,6,7.1|
4,7,7.3|
5,0,0.56|
5,1,1.8|
5,2,2.8|
5,3,5.8|
5,4,6.7|
5,5,2|
5,6,4.6|
5,7,9.8|
6,0,5|
6,1,3|
6,2,9.1|
6,3,2.7|
6,4,0.4|
6,5,1.6|
6,6,5.5|
6,7,0.54|
7,0,2.7|
7,1,4.2|
7,2,0.8|
7,3,5.6|
7,4,0.087|
7,5,1.2|
7,6,8.7|
7,7,1.8|
];
constraint_x13_x9=[
0,0,4.3|
0,1,2.2|
0,2,8.5|
0,3,0.19|
0,4,5.2|
0,5,5.4|
0,6,3.1|
0,7,2.9|
1,0,0.69|
1,1,1.1|
1,2,2.8|
1,3,1.3|
1,4,2|
1,5,1.4|
1,6,3.9|
1,7,3.4|
2,0,3.5|
2,1,1.5|
2,2,5.3|
2,3,6.7|
2,4,3|
2,5,7.3|
2,6,7.5|
2,7,6.5|
3,0,4.2|
3,1,8.1|
3,2,6.6|
3,3,2.6|
3,4,6.5|
3,5,4.6|
3,6,9.8|
3,7,3.5|
4,0,8.3|
4,1,2.8|
4,2,7.1|
4,3,8.1|
4,4,4.1|
4,5,2.8|
4,6,8.8|
4,7,6.8|
5,0,4.9|
5,1,9.8|
5,2,1.1|
5,3,9.4|
5,4,3.6|
5,5,1.8|
5,6,3.7|
5,7,0.74|
6,0,0.73|
6,1,5.9|
6,2,2.3|
6,3,2.2|
6,4,1.9|
6,5,6.9|
6,6,5.6|
6,7,6.5|
7,0,0.58|
7,1,2.1|
7,2,5.5|
7,3,7.4|
7,4,4.7|
7,5,7.6|
7,6,3|
7,7,5.9|
];
constraint_x14_x10=[
0,0,3.6|
0,1,5.9|
0,2,6|
0,3,4.9|
0,4,9.7|
0,5,7.1|
0,6,2.3|
0,7,5.9|
1,0,3.6|
1,1,1|
1,2,2.9|
1,3,3.9|
1,4,4|
1,5,3.2|
1,6,7.7|
1,7,0.38|
2,0,6.3|
2,1,8.1|
2,2,8.9|
2,3,10|
2,4,0.07|
2,5,3.1|
2,6,7.2|
2,7,5.5|
3,0,2.9|
3,1,8.4|
3,2,9.3|
3,3,4|
3,4,3.4|
3,5,8.2|
3,6,8.7|
3,7,7.5|
4,0,3.7|
4,1,9.6|
4,2,0.76|
4,3,8.2|
4,4,6.4|
4,5,7.3|
4,6,1.7|
4,7,9.9|
5,0,4|
5,1,5.1|
5,2,8.4|
5,3,6.5|
5,4,2.9|
5,5,4.2|
5,6,8.7|
5,7,9.8|
6,0,6.6|
6,1,9.2|
6,2,7.1|
6,3,2.3|
6,4,6.2|
6,5,2.3|
6,6,0.6|
6,7,6.7|
7,0,1.4|
7,1,0.59|
7,2,0.54|
7,3,9.5|
7,4,6.6|
7,5,3.3|
7,6,3.3|
7,7,8.1|
];
constraint_x1_y1=[
0,0,8.8|
0,1,2.8|
0,2,7.6|
0,3,9.7|
0,4,9.6|
0,5,6.7|
0,6,3.5|
0,7,6.9|
1,0,0.063|
1,1,2.6|
1,2,7.8|
1,3,8.6|
1,4,1.5|
1,5,6.8|
1,6,8|
1,7,3.7|
2,0,2.2|
2,1,3.4|
2,2,3.6|
2,3,4.5|
2,4,8.4|
2,5,7.3|
2,6,5.7|
2,7,4.2|
3,0,2.7|
3,1,9.7|
3,2,1.5|
3,3,7|
3,4,0.14|
3,5,1.1|
3,6,7.7|
3,7,2.2|
4,0,0.42|
4,1,0.66|
4,2,4.9|
4,3,4.4|
4,4,0.38|
4,5,7|
4,6,3.7|
4,7,5.9|
5,0,3.7|
5,1,7.6|
5,2,4.8|
5,3,1.8|
5,4,8.2|
5,5,1.7|
5,6,5.9|
5,7,8.3|
6,0,3|
6,1,8.2|
6,2,1.7|
6,3,0.7|
6,4,5.4|
6,5,9.6|
6,6,5.3|
6,7,9.9|
7,0,2.2|
7,1,0.88|
7,2,6.6|
7,3,1.6|
7,4,9.7|
7,5,4.4|
7,6,5.7|
7,7,7.1|
];
constraint_x2_y2=[
0,0,6|
0,1,8.5|
0,2,2.5|
0,3,4.4|
0,4,2.8|
0,5,4.8|
0,6,5.9|
0,7,8.1|
1,0,9|
1,1,2.7|
1,2,0.28|
1,3,5.3|
1,4,3.1|
1,5,7.6|
1,6,7.9|
1,7,5.2|
2,0,8.5|
2,1,0.78|
2,2,9.6|
2,3,1.2|
2,4,3.6|
2,5,6.6|
2,6,5.1|
2,7,1.7|
3,0,5.1|
3,1,7.5|
3,2,10|
3,3,4.7|
3,4,4.2|
3,5,9.2|
3,6,8.9|
3,7,5.1|
4,0,6.4|
4,1,5.3|
4,2,4|
4,3,0.16|
4,4,5.2|
4,5,8.2|
4,6,8.3|
4,7,3.5|
5,0,0.54|
5,1,3.6|
5,2,5.8|
5,3,3.5|
5,4,1.3|
5,5,7.8|
5,6,5.3|
5,7,5.2|
6,0,5.9|
6,1,8.7|
6,2,8|
6,3,2.1|
6,4,5.2|
6,5,9.7|
6,6,0.9|
6,7,4.3|
7,0,5.7|
7,1,4.8|
7,2,7|
7,3,3.9|
7,4,0.38|
7,5,5|
7,6,4.7|
7,7,7.3|
];
constraint_x3_y3=[
0,0,6.7|
0,1,7.8|
0,2,8.4|
0,3,1.5|
0,4,7.7|
0,5,7.9|
0,6,1.7|
0,7,3.1|
1,0,5.4|
1,1,4|
1,2,9.8|
1,3,0.51|
1,4,3.5|
1,5,9.4|
1,6,4.6|
1,7,4.9|
2,0,9.1|
2,1,5|
2,2,5.5|
2,3,8.3|
2,4,7.8|
2,5,0.55|
2,6,0.081|
2,7,4.6|
3,0,8.7|
3,1,1.1|
3,2,0.43|
3,3,5.8|
3,4,3.4|
3,5,6.5|
3,6,5.8|
3,7,9.3|
4,0,1.5|
4,1,5.7|
4,2,9.1|
4,3,5.4|
4,4,3.5|
4,5,4|
4,6,8.4|
4,7,2.6|
5,0,8.2|
5,1,9|
5,2,1.9|
5,3,7.1|
5,4,4.2|
5,5,8.7|
5,6,9|
5,7,9.1|
6,0,8.1|
6,1,6.6|
6,2,8.1|
6,3,1.7|
6,4,9.2|
6,5,2|
6,6,2.3|
6,7,3.1|
7,0,9.9|
7,1,7.4|
7,2,8|
7,3,3.5|
7,4,9.4|
7,5,5.5|
7,6,9.2|
7,7,8.2|
];
constraint_x4_y4=[
0,0,5.2|
0,1,9|
0,2,10|
0,3,5.1|
0,4,0.56|
0,5,0.88|
0,6,6.3|
0,7,2.4|
1,0,4.9|
1,1,9.7|
1,2,9.4|
1,3,2.3|
1,4,2.1|
1,5,6.3|
1,6,5.7|
1,7,2.2|
2,0,6|
2,1,1.2|
2,2,3.2|
2,3,7.9|
2,4,9.5|
2,5,7.6|
2,6,4.4|
2,7,6.9|
3,0,0.79|
3,1,8.7|
3,2,1.9|
3,3,1|
3,4,2.3|
3,5,0.73|
3,6,2.5|
3,7,2.3|
4,0,3|
4,1,2.7|
4,2,4.1|
4,3,9.2|
4,4,6.7|
4,5,6.6|
4,6,9.8|
4,7,0.13|
5,0,8.1|
5,1,2.1|
5,2,0.48|
5,3,3.6|
5,4,6.2|
5,5,2.2|
5,6,7.2|
5,7,4.4|
6,0,3.7|
6,1,0.44|
6,2,5.8|
6,3,5.1|
6,4,6.9|
6,5,9.7|
6,6,2.8|
6,7,9|
7,0,7.4|
7,1,1.2|
7,2,6.1|
7,3,2.4|
7,4,7.7|
7,5,5.3|
7,6,6.5|
7,7,0.62|
];
constraint_x5_y5=[
0,0,0.085|
0,1,0.51|
0,2,9.1|
0,3,8.1|
0,4,7.5|
0,5,10|
0,6,5.6|
0,7,7.5|
1,0,8.5|
1,1,5.2|
1,2,4.6|
1,3,3.1|
1,4,8.8|
1,5,9.5|
1,6,3.8|
1,7,5.2|
2,0,1.8|
2,1,8.3|
2,2,8.8|
2,3,7|
2,4,0.28|
2,5,5.4|
2,6,9.8|
2,7,8.8|
3,0,6.9|
3,1,7.4|
3,2,2.2|
3,3,1.5|
3,4,3.8|
3,5,3|
3,6,7.4|
3,7,6|
4,0,7.9|
4,1,7.1|
4,2,4.1|
4,3,4.9|
4,4,4.5|
4,5,7.6|
4,6,8.4|
4,7,0.41|
5,0,2.2|
5,1,0.29|
5,2,0.036|
5,3,6.9|
5,4,7.5|
5,5,7.3|
5,6,0.24|
5,7,4.6|
6,0,2.1|
6,1,4.9|
6,2,6|
6,3,8.6|
6,4,8.3|
6,5,7.4|
6,6,2|
6,7,5.9|
7,0,8.1|
7,1,4.1|
7,2,6.4|
7,3,8.7|
7,4,3.3|
7,5,5.7|
7,6,0.53|
7,7,0.92|
];
constraint_x6_y6=[
0,0,3.6|
0,1,5.6|
0,2,5.9|
0,3,0.94|
0,4,8.9|
0,5,9.5|
0,6,9.4|
0,7,5.8|
1,0,9.3|
1,1,6.1|
1,2,4.5|
1,3,5.5|
1,4,0.84|
1,5,9|
1,6,0.5|
1,7,2|
2,0,9.6|
2,1,1.6|
2,2,5.8|
2,3,9.7|
2,4,6.1|
2,5,9.7|
2,6,3.2|
2,7,6.7|
3,0,6.7|
3,1,9.5|
3,2,5.8|
3,3,0.26|
3,4,7.1|
3,5,5.2|
3,6,0.59|
3,7,7.2|
4,0,7.4|
4,1,0.54|
4,2,1.3|
4,3,9.7|
4,4,9.9|
4,5,9.9|
4,6,5.7|
4,7,9.9|
5,0,2.6|
5,1,4.1|
5,2,5.7|
5,3,0.77|
5,4,7.8|
5,5,0.55|
5,6,5|
5,7,5.8|
6,0,0.24|
6,1,4.1|
6,2,8.2|
6,3,6.8|
6,4,3.7|
6,5,2.7|
6,6,5.7|
6,7,3.3|
7,0,2.2|
7,1,7.4|
7,2,3.2|
7,3,1.4|
7,4,6.1|
7,5,0.41|
7,6,7.9|
7,7,8.7|
];
initial_distribution_y1=[0.039,0.17,0.11,0.089,0.16,0.11,0.17,0.15];
initial_distribution_y2=[0.072,0.096,0.24,0.15,0.16,0.039,0.027,0.23];
initial_distribution_y3=[0.044,0.26,0.25,0.19,0.064,0.1,0.064,0.03];
initial_distribution_y4=[0.069,0.14,0.21,0.022,0.13,0.13,0.22,0.079];
initial_distribution_y5=[0.19,0.072,0.15,0.11,0.14,0.12,0.14,0.085];
initial_distribution_y6=[0.087,0.045,0.18,0.15,0.16,0.16,0.12,0.1];
transition_y1=[
0.095,0.17,0.11,0.086,0.12,0.017,0.24,0.16|
0.11,0.14,0.062,0.18,0.2,0.056,0.17,0.077|
0.079,0.15,0.068,0.021,0.023,0.15,0.14,0.37|
0.17,0.082,0.028,0.14,0.13,0.16,0.25,0.049|
0.19,0.077,0.14,0.19,0.088,0.082,0.053,0.18|
0.024,0.076,0.17,0.16,0.19,0.11,0.094,0.19|
0.031,0.12,0.079,0.12,0.21,0.16,0.15,0.13|
0.16,0.084,0.18,0.2,0.2,0.035,0.13,0.0063|
];
transition_y2=[
0.037,0.22,0.14,0.25,0.14,0.038,0.025,0.15|
0.33,0.15,0.059,0.0079,0.16,0.28,0.0036,0.008|
0.14,0.22,0.055,0.18,0.18,0.009,0.033,0.18|
0.26,0.15,0.068,0.053,0.066,0.052,0.14,0.22|
0.089,0.12,0.21,0.059,0.11,0.027,0.21,0.16|
0.073,0.17,0.18,0.079,0.052,0.1,0.045,0.3|
0.056,0.22,0.19,0.013,0.049,0.032,0.25,0.19|
0.098,0.22,0.13,0.16,0.087,0.077,0.078,0.15|
];
transition_y3=[
0.16,0.21,0.057,0.13,0.12,0.19,0.11,0.02|
0.067,0.12,0.016,0.11,0.19,0.21,0.11,0.18|
0.14,0.13,0.086,0.19,0.11,0.14,0.16,0.041|
0.24,0.22,0.0057,0.069,0.12,0.097,0.19,0.061|
0.084,0.18,0.1,0.014,0.19,0.096,0.16,0.16|
0.14,0.07,0.15,0.14,0.15,0.14,0.17,0.039|
0.19,0.11,0.21,0.11,0.073,0.1,0.17,0.033|
0.0051,0.021,0.11,0.24,0.18,0.24,0.21,0.011|
];
transition_y4=[
0.14,0.085,0.19,0.039,0.005,0.21,0.092,0.23|
0.15,0.15,0.11,0.1,0.11,0.13,0.1,0.14|
0.051,0.19,0.17,0.014,0.19,0.11,0.055,0.21|
0.14,0.24,0.16,0.053,0.13,0.044,0.2,0.037|
0.16,0.086,0.15,0.19,0.15,0.031,0.13,0.1|
0.045,0.15,0.057,0.077,0.17,0.17,0.061,0.28|
0.06,0.2,0.15,0.18,0.057,0.16,0.16,0.036|
0.19,0.047,0.061,0.11,0.081,0.2,0.1,0.21|
];
transition_y5=[
0.057,0.017,0.22,0.27,0.042,0.17,0.1,0.12|
0.11,0.1,0.11,0.1,0.2,0.15,0.074,0.15|
0.1,0.2,0.089,0.23,0.011,0.2,0.046,0.12|
0.07,0.19,0.14,0.01,0.19,0.17,0.18,0.045|
0.14,0.21,0.098,0.13,0.052,0.19,0.17,0.01|
0.21,0.048,0.12,0.1,0.13,0.25,0.05,0.098|
0.088,0.087,0.19,0.065,0.19,0.21,0.16,0.0028|
0.29,0.21,0.033,0.12,0.047,0.1,0.013,0.18|
];
transition_y6=[
0.056,0.29,0.17,0.069,0.13,0.23,0.028,0.027|
0.0071,0.3,0.21,0.083,0.058,0.019,0.12,0.2|
0.25,0.064,0.012,0.18,0.15,0.13,0.062,0.17|
0.035,0.2,0.21,0.08,0.17,0.057,0.21,0.045|
0.068,0.2,0.21,0.067,0.19,0.062,0.18,0.027|
0.12,0.058,0.12,0.17,0.17,0.097,0.23,0.039|
0.18,0.069,0.12,0.14,0.045,0.15,0.087,0.21|
0.02,0.2,0.14,0.21,0.057,0.18,0.18,0.016|
];
